10J3M/DAT/10J3MUNR-15.dat
10 3
16.8035 24.5317
21.3981 7.0629
48.2375 39.9246
1.6223 15.5509
3.3182 19.8573
19.246 31.3907
24.3405 38.7625
37.1878 19.0428
38.8113 25.424
46.9999 44.2696
265.817