10J3M/SOL/10J3MUNR-15.sol
solution status: optimal solution found
objective value:                     85.9883666666666
x#1#1                                               1 	(obj:0)
x#2#3                                               1 	(obj:0)
x#3#1                               0.161894100371426 	(obj:0)
x#3#3                               0.838105899628574 	(obj:0)
x#4#3                                               1 	(obj:0)
x#5#1                                               1 	(obj:0)
x#6#1                                               1 	(obj:0)
x#7#2                                               1 	(obj:0)
x#8#2                                               1 	(obj:0)
x#9#1                                               1 	(obj:0)
x#10#2                              0.520428057648349 	(obj:0)
x#10#3                               0.47957194235165 	(obj:0)
z                                    85.9883666666666 	(obj:1)
